p cnf 153 184
c ind 63 64 65 66 67 68 69 70 0
c ind 71 72 73 74 75 76 77 78 79 80 0
c ind 81 82 83 84 85 86 87 88 89 90 0
c ind 91 92 93 94 95 96 97 98 99 100 0
c ind 101 102 103 104 105 106 107 108 109 110 0
c ind 111 112 113 114 115 116 117 118 119 120 0
c ind 121 122 123 124 125 126 127 128 129 130 0
c ind 131 132 133 134 135 136 137 138 139 140 0
c ind 141 142 143 144 145 146 147 148 149 150 0
c ind 151 152 153 0
13 0
-23 0
-1 -63 10 0
1 -63 -10 0
-1 -64 38 0
1 -64 -38 0
-2 -65 4 0
2 -65 -4 0
-2 -66 10 0
2 -66 -10 0
-2 -67 29 0
2 -67 -29 0
-2 -68 47 0
2 -68 -47 0
-2 -69 48 0
2 -69 -48 0
-2 -70 61 0
2 -70 -61 0
-3 -71 6 0
3 -71 -6 0
-3 -72 33 0
3 -72 -33 0
-3 -73 34 0
3 -73 -34 0
-3 -74 36 0
3 -74 -36 0
-3 -75 39 0
3 -75 -39 0
-4 -76 7 0
4 -76 -7 0
-4 -77 17 0
4 -77 -17 0
-4 -78 40 0
4 -78 -40 0
-4 -79 61 0
4 -79 -61 0
-5 -80 8 0
5 -80 -8 0
-5 -81 11 0
5 -81 -11 0
-5 -82 45 0
5 -82 -45 0
-5 -83 48 0
5 -83 -48 0
-5 -84 52 0
5 -84 -52 0
-5 -85 55 0
5 -85 -55 0
-5 -86 58 0
5 -86 -58 0
-5 -87 59 0
5 -87 -59 0
-6 -88 10 0
6 -88 -10 0
-6 -89 11 0
6 -89 -11 0
-6 -90 25 0
6 -90 -25 0
-6 -91 27 0
6 -91 -27 0
-6 -92 29 0
6 -92 -29 0
-6 -93 31 0
6 -93 -31 0
-6 -94 32 0
6 -94 -32 0
-6 -95 37 0
6 -95 -37 0
-6 -96 38 0
6 -96 -38 0
-7 -97 8 0
7 -97 -8 0
-7 -98 10 0
7 -98 -10 0
-7 -99 14 0
7 -99 -14 0
-7 -100 15 0
7 -100 -15 0
-7 -101 18 0
7 -101 -18 0
-7 -102 47 0
7 -102 -47 0
-8 -103 10 0
8 -103 -10 0
-8 -104 43 0
8 -104 -43 0
-9 -105 34 0
9 -105 -34 0
-9 -106 38 0
9 -106 -38 0
-9 -107 39 0
9 -107 -39 0
-10 -108 37 0
10 -108 -37 0
-11 -109 19 0
11 -109 -19 0
-11 -110 54 0
11 -110 -54 0
-11 -111 56 0
11 -111 -56 0
-12 -112 14 0
12 -112 -14 0
-12 -113 60 0
12 -113 -60 0
-13 -114 16 0
13 -114 -16 0
-13 -115 62 0
13 -115 -62 0
-15 -116 16 0
15 -116 -16 0
-17 -117 18 0
17 -117 -18 0
-17 -118 47 0
17 -118 -47 0
-17 -119 60 0
17 -119 -60 0
-19 -120 20 0
19 -120 -20 0
-20 -121 27 0
20 -121 -27 0
-21 -122 22 0
21 -122 -22 0
-21 -123 49 0
21 -123 -49 0
-22 -124 23 0
22 -124 -23 0
-22 -125 50 0
22 -125 -50 0
-23 -126 24 0
23 -126 -24 0
-24 -127 26 0
24 -127 -26 0
-24 -128 32 0
24 -128 -32 0
-25 -129 26 0
25 -129 -26 0
-27 -130 28 0
27 -130 -28 0
-27 -131 31 0
27 -131 -31 0
-27 -132 32 0
27 -132 -32 0
-28 -133 29 0
28 -133 -29 0
-28 -134 30 0
28 -134 -30 0
-35 -135 36 0
35 -135 -36 0
-36 -136 37 0
36 -136 -37 0
-38 -137 39 0
38 -137 -39 0
-40 -138 44 0
40 -138 -44 0
-41 -139 43 0
41 -139 -43 0
-41 -140 44 0
41 -140 -44 0
-41 -141 45 0
41 -141 -45 0
-42 -142 44 0
42 -142 -44 0
-45 -143 46 0
45 -143 -46 0
-48 -144 49 0
48 -144 -49 0
-50 -145 51 0
50 -145 -51 0
-50 -146 53 0
50 -146 -53 0
-50 -147 54 0
50 -147 -54 0
-52 -148 54 0
52 -148 -54 0
-54 -149 57 0
54 -149 -57 0
-55 -150 58 0
55 -150 -58 0
-56 -151 57 0
56 -151 -57 0
-57 -152 58 0
57 -152 -58 0
-60 -153 62 0
60 -153 -62 0
